c FILE: i080-205

c SOURCE: From steinlib

c DESCRIPTION: Steinlib instance with 80 nodes and 120 edges.

p edge 80 120
e 1 24
e 1 41
e 1 48
e 1 73
e 1 74
e 2 13
e 2 24
e 2 67
e 2 75
e 2 80
e 3 41
e 3 66
e 4 31
e 4 50
e 5 19
e 6 53
e 7 74
e 8 48
e 8 55
e 8 75
e 9 75
e 10 11
e 11 43
e 11 61
e 11 66
e 12 14
e 12 38
e 12 52
e 12 60
e 13 46
e 13 48
e 13 61
e 13 66
e 13 79
e 14 21
e 15 24
e 15 75
e 15 77
e 15 78
e 16 21
e 17 24
e 17 52
e 17 79
e 17 80
e 18 48
e 19 20
e 19 62
e 19 74
e 20 22
e 20 48
e 20 54
e 21 48
e 21 74
e 22 75
e 23 37
e 24 26
e 24 53
e 24 64
e 25 77
e 26 58
e 26 78
e 27 37
e 27 69
e 28 46
e 28 52
e 29 41
e 29 55
e 30 53
e 31 44
e 31 70
e 32 38
e 32 69
e 33 35
e 33 66
e 34 45
e 34 79
e 35 47
e 35 77
e 36 64
e 36 69
e 36 72
e 37 50
e 37 77
e 38 42
e 39 47
e 40 44
e 40 54
e 40 65
e 42 48
e 42 51
e 42 65
e 43 56
e 43 64
e 45 52
e 47 72
e 47 75
e 49 56
e 49 69
e 49 73
e 51 55
e 53 56
e 53 60
e 54 60
e 54 65
e 54 71
e 54 79
e 56 57
e 58 64
e 59 64
e 61 69
e 62 71
e 62 80
e 63 76
e 64 76
e 66 67
e 66 78
e 68 76
e 68 79
e 70 78
e 70 80
